\ENCODING=ISO-8859-1
\Problem name: 

Minimize
 obj: 29.6116008758545 x_#101 + 37.8699989318848 x_#102
      + 2.97519993782043 x_#103 + 47.1251983642578 x_#104
      + 83.6516036987305 x_#105 + 44.282299041748 x_#106
      + 60.3699989318848 x_#107 + 88.6645965576172 x_#108
      + 66.2208023071289 x_#109 + 29.6116008758545 x___#110
      + 11.2867002487183 x____#112 + 32.1076011657715 x____#113
      + 47.4455986022949 x____#114 + 56.1669998168945 x____#115
      + 46.3541984558105 x____#116 + 30.9724006652832 x____#117
      + 66.1169967651367 x____#118 + 45.5276985168457 x____#119
      + 37.8699989318848 x___#120 + 11.2867002487183 x____#121
      + 39.9331016540527 x____#123 + 42.7159996032715 x____#124
      + 45.994800567627 x____#125 + 42.4091987609863 x____#126
      + 23.5317001342773 x____#127 + 54.8372993469238 x____#128
      + 50.1436996459961 x____#129 + 2.97519993782043 x___#130
      + 32.1076011657715 x____#131 + 39.9331016540527 x____#132
      + 46.350399017334 x____#134 + 85.5074005126953 x____#135
      + 43.391300201416 x____#136 + 62.6963996887207 x____#137
      + 89.8099975585938 x____#138 + 69.1955032348633 x____#139
      + 47.1251983642578 x___#140 + 47.4455986022949 x____#141
      + 42.7159996032715 x____#142 + 46.350399017334 x____#143
      + 68.2384033203125 x____#145 + 3.43759989738464 x____#146
      + 60.6642990112305 x____#147 + 59.5984992980957 x____#148
      + 92.3448028564453 x____#149 + 83.6516036987305 x___#150
      + 56.1669998168945 x____#151 + 45.994800567627 x____#152
      + 85.5074005126953 x____#153 + 68.2384033203125 x____#154
      + 70.2228012084961 x____#156 + 28.1392002105713 x____#157
      + 24.5475006103516 x____#158 + 68.9879989624023 x____#159
      + 44.282299041748 x___#160 + 46.3541984558105 x____#161
      + 42.4091987609863 x____#162 + 43.391300201416 x____#163
      + 3.43759989738464 x____#164 + 70.2228012084961 x____#165
      + 61.3414001464844 x____#167 + 62.4403991699219 x____#168
      + 91.5761032104492 x____#169 + 60.3699989318848 x___#170
      + 30.9724006652832 x____#171 + 23.5317001342773 x____#172
      + 62.6963996887207 x____#173 + 60.6642990112305 x____#174
      + 28.1392002105713 x____#175 + 61.3414001464844 x____#176
      + 46.103099822998 x____#178 + 44.173999786377 x____#179
      + 88.6645965576172 x___#180 + 66.1169967651367 x____#181
      + 54.8372993469238 x____#182 + 89.8099975585938 x____#183
      + 59.5984992980957 x____#184 + 24.5475006103516 x____#185
      + 62.4403991699219 x____#186 + 46.103099822998 x____#187
      + 90.0020980834961 x____#189 + 66.2208023071289 x___#190
      + 45.5276985168457 x____#191 + 50.1436996459961 x____#192
      + 69.1955032348633 x____#193 + 92.3448028564453 x____#194
      + 68.9879989624023 x____#195 + 91.5761032104492 x____#196
      + 44.173999786377 x____#197 + 90.0020980834961 x____#198
Subject To
 c1:   x_#0 + x_#1 + x_#2 + x_#3 + x_#4 + x_#5 + x_#6 + x_#7 + x_#8 + x_#9
        = 10
 c2:   x_#1 - x___#10 - x____#11 - x____#12 - x____#13 - x____#14 - x____#15
       - x____#16 - x____#17 - x____#18 - x____#19 + x____#21 + x____#31
       + x____#41 + x____#51 + x____#61 + x____#71 + x____#81 + x____#91  = 1
 c3:   x_#2 + x____#12 - x___#20 - x____#21 - x____#22 - x____#23 - x____#24
       - x____#25 - x____#26 - x____#27 - x____#28 - x____#29 + x____#32
       + x____#42 + x____#52 + x____#62 + x____#72 + x____#82 + x____#92  = 1
 c4:   x_#3 + x____#13 + x____#23 - x___#30 - x____#31 - x____#32 - x____#33
       - x____#34 - x____#35 - x____#36 - x____#37 - x____#38 - x____#39
       + x____#43 + x____#53 + x____#63 + x____#73 + x____#83 + x____#93  = 1
 c5:   x_#4 + x____#14 + x____#24 + x____#34 - x___#40 - x____#41 - x____#42
       - x____#43 - x____#44 - x____#45 - x____#46 - x____#47 - x____#48
       - x____#49 + x____#54 + x____#64 + x____#74 + x____#84 + x____#94  = 1
 c6:   x_#5 + x____#15 + x____#25 + x____#35 + x____#45 - x___#50 - x____#51
       - x____#52 - x____#53 - x____#54 - x____#55 - x____#56 - x____#57
       - x____#58 - x____#59 + x____#65 + x____#75 + x____#85 + x____#95  = 1
 c7:   x_#6 + x____#16 + x____#26 + x____#36 + x____#46 + x____#56 - x___#60
       - x____#61 - x____#62 - x____#63 - x____#64 - x____#65 - x____#66
       - x____#67 - x____#68 - x____#69 + x____#76 + x____#86 + x____#96  = 1
 c8:   x_#7 + x____#17 + x____#27 + x____#37 + x____#47 + x____#57 + x____#67
       - x___#70 - x____#71 - x____#72 - x____#73 - x____#74 - x____#75
       - x____#76 - x____#77 - x____#78 - x____#79 + x____#87 + x____#97  = 1
 c9:   x_#8 + x____#18 + x____#28 + x____#38 + x____#48 + x____#58 + x____#68
       + x____#78 - x___#80 - x____#81 - x____#82 - x____#83 - x____#84
       - x____#85 - x____#86 - x____#87 - x____#88 - x____#89 + x____#98  = 1
 c10:  x_#9 + x____#19 + x____#29 + x____#39 + x____#49 + x____#59 + x____#69
       + x____#79 + x____#89 - x___#90 - x____#91 - x____#92 - x____#93
       - x____#94 - x____#95 - x____#96 - x____#97 - x____#98 - x____#99  = 1
 c11:  x_#100 + x_#101 + x_#102 + x_#103 + x_#104 + x_#105 + x_#106 + x_#107
       + x_#108 + x_#109  = 1
 c12:  x___#110 + x____#111 + x____#112 + x____#113 + x____#114 + x____#115
       + x____#116 + x____#117 + x____#118 + x____#119  = 1
 c13:  x___#120 + x____#121 + x____#122 + x____#123 + x____#124 + x____#125
       + x____#126 + x____#127 + x____#128 + x____#129  = 1
 c14:  x___#130 + x____#131 + x____#132 + x____#133 + x____#134 + x____#135
       + x____#136 + x____#137 + x____#138 + x____#139  = 1
 c15:  x___#140 + x____#141 + x____#142 + x____#143 + x____#144 + x____#145
       + x____#146 + x____#147 + x____#148 + x____#149  = 1
 c16:  x___#150 + x____#151 + x____#152 + x____#153 + x____#154 + x____#155
       + x____#156 + x____#157 + x____#158 + x____#159  = 1
 c17:  x___#160 + x____#161 + x____#162 + x____#163 + x____#164 + x____#165
       + x____#166 + x____#167 + x____#168 + x____#169  = 1
 c18:  x___#170 + x____#171 + x____#172 + x____#173 + x____#174 + x____#175
       + x____#176 + x____#177 + x____#178 + x____#179  = 1
 c19:  x___#180 + x____#181 + x____#182 + x____#183 + x____#184 + x____#185
       + x____#186 + x____#187 + x____#188 + x____#189  = 1
 c20:  x___#190 + x____#191 + x____#192 + x____#193 + x____#194 + x____#195
       + x____#196 + x____#197 + x____#198 + x____#199  = 1
 c21:  x_#100 + x___#110 + x___#120 + x___#130 + x___#140 + x___#150 + x___#160
       + x___#170 + x___#180 + x___#190  = 1
 c22:  x_#101 + x____#111 + x____#121 + x____#131 + x____#141 + x____#151
       + x____#161 + x____#171 + x____#181 + x____#191  = 1
 c23:  x_#102 + x____#112 + x____#122 + x____#132 + x____#142 + x____#152
       + x____#162 + x____#172 + x____#182 + x____#192  = 1
 c24:  x_#103 + x____#113 + x____#123 + x____#133 + x____#143 + x____#153
       + x____#163 + x____#173 + x____#183 + x____#193  = 1
 c25:  x_#104 + x____#114 + x____#124 + x____#134 + x____#144 + x____#154
       + x____#164 + x____#174 + x____#184 + x____#194  = 1
 c26:  x_#105 + x____#115 + x____#125 + x____#135 + x____#145 + x____#155
       + x____#165 + x____#175 + x____#185 + x____#195  = 1
 c27:  x_#106 + x____#116 + x____#126 + x____#136 + x____#146 + x____#156
       + x____#166 + x____#176 + x____#186 + x____#196  = 1
 c28:  x_#107 + x____#117 + x____#127 + x____#137 + x____#147 + x____#157
       + x____#167 + x____#177 + x____#187 + x____#197  = 1
 c29:  x_#108 + x____#118 + x____#128 + x____#138 + x____#148 + x____#158
       + x____#168 + x____#178 + x____#188 + x____#198  = 1
 c30:  x_#109 + x____#119 + x____#129 + x____#139 + x____#149 + x____#159
       + x____#169 + x____#179 + x____#189 + x____#199  = 1
 c31:  x_#0 - 10 x_#100 <= 0
 c32:  x_#1 - 10 x_#101 <= 0
 c33:  x_#2 - 10 x_#102 <= 0
 c34:  x_#3 - 10 x_#103 <= 0
 c35:  x_#4 - 10 x_#104 <= 0
 c36:  x_#5 - 10 x_#105 <= 0
 c37:  x_#6 - 10 x_#106 <= 0
 c38:  x_#7 - 10 x_#107 <= 0
 c39:  x_#8 - 10 x_#108 <= 0
 c40:  x_#9 - 10 x_#109 <= 0
 c41:  x___#10 - 10 x___#110 <= 0
 c42:  x____#11 - 10 x____#111 <= 0
 c43:  x____#12 - 10 x____#112 <= 0
 c44:  x____#13 - 10 x____#113 <= 0
 c45:  x____#14 - 10 x____#114 <= 0
 c46:  x____#15 - 10 x____#115 <= 0
 c47:  x____#16 - 10 x____#116 <= 0
 c48:  x____#17 - 10 x____#117 <= 0
 c49:  x____#18 - 10 x____#118 <= 0
 c50:  x____#19 - 10 x____#119 <= 0
 c51:  x___#20 - 10 x___#120 <= 0
 c52:  x____#21 - 10 x____#121 <= 0
 c53:  x____#22 - 10 x____#122 <= 0
 c54:  x____#23 - 10 x____#123 <= 0
 c55:  x____#24 - 10 x____#124 <= 0
 c56:  x____#25 - 10 x____#125 <= 0
 c57:  x____#26 - 10 x____#126 <= 0
 c58:  x____#27 - 10 x____#127 <= 0
 c59:  x____#28 - 10 x____#128 <= 0
 c60:  x____#29 - 10 x____#129 <= 0
 c61:  x___#30 - 10 x___#130 <= 0
 c62:  x____#31 - 10 x____#131 <= 0
 c63:  x____#32 - 10 x____#132 <= 0
 c64:  x____#33 - 10 x____#133 <= 0
 c65:  x____#34 - 10 x____#134 <= 0
 c66:  x____#35 - 10 x____#135 <= 0
 c67:  x____#36 - 10 x____#136 <= 0
 c68:  x____#37 - 10 x____#137 <= 0
 c69:  x____#38 - 10 x____#138 <= 0
 c70:  x____#39 - 10 x____#139 <= 0
 c71:  x___#40 - 10 x___#140 <= 0
 c72:  x____#41 - 10 x____#141 <= 0
 c73:  x____#42 - 10 x____#142 <= 0
 c74:  x____#43 - 10 x____#143 <= 0
 c75:  x____#44 - 10 x____#144 <= 0
 c76:  x____#45 - 10 x____#145 <= 0
 c77:  x____#46 - 10 x____#146 <= 0
 c78:  x____#47 - 10 x____#147 <= 0
 c79:  x____#48 - 10 x____#148 <= 0
 c80:  x____#49 - 10 x____#149 <= 0
 c81:  x___#50 - 10 x___#150 <= 0
 c82:  x____#51 - 10 x____#151 <= 0
 c83:  x____#52 - 10 x____#152 <= 0
 c84:  x____#53 - 10 x____#153 <= 0
 c85:  x____#54 - 10 x____#154 <= 0
 c86:  x____#55 - 10 x____#155 <= 0
 c87:  x____#56 - 10 x____#156 <= 0
 c88:  x____#57 - 10 x____#157 <= 0
 c89:  x____#58 - 10 x____#158 <= 0
 c90:  x____#59 - 10 x____#159 <= 0
 c91:  x___#60 - 10 x___#160 <= 0
 c92:  x____#61 - 10 x____#161 <= 0
 c93:  x____#62 - 10 x____#162 <= 0
 c94:  x____#63 - 10 x____#163 <= 0
 c95:  x____#64 - 10 x____#164 <= 0
 c96:  x____#65 - 10 x____#165 <= 0
 c97:  x____#66 - 10 x____#166 <= 0
 c98:  x____#67 - 10 x____#167 <= 0
 c99:  x____#68 - 10 x____#168 <= 0
 c100: x____#69 - 10 x____#169 <= 0
 c101: x___#70 - 10 x___#170 <= 0
 c102: x____#71 - 10 x____#171 <= 0
 c103: x____#72 - 10 x____#172 <= 0
 c104: x____#73 - 10 x____#173 <= 0
 c105: x____#74 - 10 x____#174 <= 0
 c106: x____#75 - 10 x____#175 <= 0
 c107: x____#76 - 10 x____#176 <= 0
 c108: x____#77 - 10 x____#177 <= 0
 c109: x____#78 - 10 x____#178 <= 0
 c110: x____#79 - 10 x____#179 <= 0
 c111: x___#80 - 10 x___#180 <= 0
 c112: x____#81 - 10 x____#181 <= 0
 c113: x____#82 - 10 x____#182 <= 0
 c114: x____#83 - 10 x____#183 <= 0
 c115: x____#84 - 10 x____#184 <= 0
 c116: x____#85 - 10 x____#185 <= 0
 c117: x____#86 - 10 x____#186 <= 0
 c118: x____#87 - 10 x____#187 <= 0
 c119: x____#88 - 10 x____#188 <= 0
 c120: x____#89 - 10 x____#189 <= 0
 c121: x___#90 - 10 x___#190 <= 0
 c122: x____#91 - 10 x____#191 <= 0
 c123: x____#92 - 10 x____#192 <= 0
 c124: x____#93 - 10 x____#193 <= 0
 c125: x____#94 - 10 x____#194 <= 0
 c126: x____#95 - 10 x____#195 <= 0
 c127: x____#96 - 10 x____#196 <= 0
 c128: x____#97 - 10 x____#197 <= 0
 c129: x____#98 - 10 x____#198 <= 0
 c130: x____#99 - 10 x____#199 <= 0
Bounds
      x_#0 >= 0
      x_#1 >= 0
      x_#2 >= 0
      x_#3 >= 0
      x_#4 >= 0
      x_#5 >= 0
      x_#6 >= 0
      x_#7 >= 0
      x_#8 >= 0
      x_#9 >= 0
      x___#10 >= 0
      x____#11 >= 0
      x____#12 >= 0
      x____#13 >= 0
      x____#14 >= 0
      x____#15 >= 0
      x____#16 >= 0
      x____#17 >= 0
      x____#18 >= 0
      x____#19 >= 0
      x___#20 >= 0
      x____#21 >= 0
      x____#22 >= 0
      x____#23 >= 0
      x____#24 >= 0
      x____#25 >= 0
      x____#26 >= 0
      x____#27 >= 0
      x____#28 >= 0
      x____#29 >= 0
      x___#30 >= 0
      x____#31 >= 0
      x____#32 >= 0
      x____#33 >= 0
      x____#34 >= 0
      x____#35 >= 0
      x____#36 >= 0
      x____#37 >= 0
      x____#38 >= 0
      x____#39 >= 0
      x___#40 >= 0
      x____#41 >= 0
      x____#42 >= 0
      x____#43 >= 0
      x____#44 >= 0
      x____#45 >= 0
      x____#46 >= 0
      x____#47 >= 0
      x____#48 >= 0
      x____#49 >= 0
      x___#50 >= 0
      x____#51 >= 0
      x____#52 >= 0
      x____#53 >= 0
      x____#54 >= 0
      x____#55 >= 0
      x____#56 >= 0
      x____#57 >= 0
      x____#58 >= 0
      x____#59 >= 0
      x___#60 >= 0
      x____#61 >= 0
      x____#62 >= 0
      x____#63 >= 0
      x____#64 >= 0
      x____#65 >= 0
      x____#66 >= 0
      x____#67 >= 0
      x____#68 >= 0
      x____#69 >= 0
      x___#70 >= 0
      x____#71 >= 0
      x____#72 >= 0
      x____#73 >= 0
      x____#74 >= 0
      x____#75 >= 0
      x____#76 >= 0
      x____#77 >= 0
      x____#78 >= 0
      x____#79 >= 0
      x___#80 >= 0
      x____#81 >= 0
      x____#82 >= 0
      x____#83 >= 0
      x____#84 >= 0
      x____#85 >= 0
      x____#86 >= 0
      x____#87 >= 0
      x____#88 >= 0
      x____#89 >= 0
      x___#90 >= 0
      x____#91 >= 0
      x____#92 >= 0
      x____#93 >= 0
      x____#94 >= 0
      x____#95 >= 0
      x____#96 >= 0
      x____#97 >= 0
      x____#98 >= 0
      x____#99 >= 0
 0 <= x_#100 <= 1
 0 <= x_#101 <= 1
 0 <= x_#102 <= 1
 0 <= x_#103 <= 1
 0 <= x_#104 <= 1
 0 <= x_#105 <= 1
 0 <= x_#106 <= 1
 0 <= x_#107 <= 1
 0 <= x_#108 <= 1
 0 <= x_#109 <= 1
 0 <= x___#110 <= 1
 0 <= x____#111 <= 1
 0 <= x____#112 <= 1
 0 <= x____#113 <= 1
 0 <= x____#114 <= 1
 0 <= x____#115 <= 1
 0 <= x____#116 <= 1
 0 <= x____#117 <= 1
 0 <= x____#118 <= 1
 0 <= x____#119 <= 1
 0 <= x___#120 <= 1
 0 <= x____#121 <= 1
 0 <= x____#122 <= 1
 0 <= x____#123 <= 1
 0 <= x____#124 <= 1
 0 <= x____#125 <= 1
 0 <= x____#126 <= 1
 0 <= x____#127 <= 1
 0 <= x____#128 <= 1
 0 <= x____#129 <= 1
 0 <= x___#130 <= 1
 0 <= x____#131 <= 1
 0 <= x____#132 <= 1
 0 <= x____#133 <= 1
 0 <= x____#134 <= 1
 0 <= x____#135 <= 1
 0 <= x____#136 <= 1
 0 <= x____#137 <= 1
 0 <= x____#138 <= 1
 0 <= x____#139 <= 1
 0 <= x___#140 <= 1
 0 <= x____#141 <= 1
 0 <= x____#142 <= 1
 0 <= x____#143 <= 1
 0 <= x____#144 <= 1
 0 <= x____#145 <= 1
 0 <= x____#146 <= 1
 0 <= x____#147 <= 1
 0 <= x____#148 <= 1
 0 <= x____#149 <= 1
 0 <= x___#150 <= 1
 0 <= x____#151 <= 1
 0 <= x____#152 <= 1
 0 <= x____#153 <= 1
 0 <= x____#154 <= 1
 0 <= x____#155 <= 1
 0 <= x____#156 <= 1
 0 <= x____#157 <= 1
 0 <= x____#158 <= 1
 0 <= x____#159 <= 1
 0 <= x___#160 <= 1
 0 <= x____#161 <= 1
 0 <= x____#162 <= 1
 0 <= x____#163 <= 1
 0 <= x____#164 <= 1
 0 <= x____#165 <= 1
 0 <= x____#166 <= 1
 0 <= x____#167 <= 1
 0 <= x____#168 <= 1
 0 <= x____#169 <= 1
 0 <= x___#170 <= 1
 0 <= x____#171 <= 1
 0 <= x____#172 <= 1
 0 <= x____#173 <= 1
 0 <= x____#174 <= 1
 0 <= x____#175 <= 1
 0 <= x____#176 <= 1
 0 <= x____#177 <= 1
 0 <= x____#178 <= 1
 0 <= x____#179 <= 1
 0 <= x___#180 <= 1
 0 <= x____#181 <= 1
 0 <= x____#182 <= 1
 0 <= x____#183 <= 1
 0 <= x____#184 <= 1
 0 <= x____#185 <= 1
 0 <= x____#186 <= 1
 0 <= x____#187 <= 1
 0 <= x____#188 <= 1
 0 <= x____#189 <= 1
 0 <= x___#190 <= 1
 0 <= x____#191 <= 1
 0 <= x____#192 <= 1
 0 <= x____#193 <= 1
 0 <= x____#194 <= 1
 0 <= x____#195 <= 1
 0 <= x____#196 <= 1
 0 <= x____#197 <= 1
 0 <= x____#198 <= 1
 0 <= x____#199 <= 1
Generals
 x_#0  x_#1  x_#2  x_#3  x_#4  x_#5  x_#6  x_#7  x_#8  x_#9  x___#10  x____#11 
 x____#12  x____#13  x____#14  x____#15  x____#16  x____#17  x____#18 
 x____#19  x___#20  x____#21  x____#22  x____#23  x____#24  x____#25  x____#26 
 x____#27  x____#28  x____#29  x___#30  x____#31  x____#32  x____#33  x____#34 
 x____#35  x____#36  x____#37  x____#38  x____#39  x___#40  x____#41  x____#42 
 x____#43  x____#44  x____#45  x____#46  x____#47  x____#48  x____#49  x___#50 
 x____#51  x____#52  x____#53  x____#54  x____#55  x____#56  x____#57 
 x____#58  x____#59  x___#60  x____#61  x____#62  x____#63  x____#64  x____#65 
 x____#66  x____#67  x____#68  x____#69  x___#70  x____#71  x____#72  x____#73 
 x____#74  x____#75  x____#76  x____#77  x____#78  x____#79  x___#80  x____#81 
 x____#82  x____#83  x____#84  x____#85  x____#86  x____#87  x____#88 
 x____#89  x___#90  x____#91  x____#92  x____#93  x____#94  x____#95  x____#96 
 x____#97  x____#98  x____#99  x_#100  x_#101  x_#102  x_#103  x_#104  x_#105 
 x_#106  x_#107  x_#108  x_#109  x___#110  x____#111  x____#112  x____#113 
 x____#114  x____#115  x____#116  x____#117  x____#118  x____#119  x___#120 
 x____#121  x____#122  x____#123  x____#124  x____#125  x____#126  x____#127 
 x____#128  x____#129  x___#130  x____#131  x____#132  x____#133  x____#134 
 x____#135  x____#136  x____#137  x____#138  x____#139  x___#140  x____#141 
 x____#142  x____#143  x____#144  x____#145  x____#146  x____#147  x____#148 
 x____#149  x___#150  x____#151  x____#152  x____#153  x____#154  x____#155 
 x____#156  x____#157  x____#158  x____#159  x___#160  x____#161  x____#162 
 x____#163  x____#164  x____#165  x____#166  x____#167  x____#168  x____#169 
 x___#170  x____#171  x____#172  x____#173  x____#174  x____#175  x____#176 
 x____#177  x____#178  x____#179  x___#180  x____#181  x____#182  x____#183 
 x____#184  x____#185  x____#186  x____#187  x____#188  x____#189  x___#190 
 x____#191  x____#192  x____#193  x____#194  x____#195  x____#196  x____#197 
 x____#198  x____#199 
End
